Gurobi Optimizer version 9.0.1 build v9.0.1rc0 (linux64)
Optimize a model with 48568 rows, 97840 columns and 285056 nonzeros
Model fingerprint: 0xedd25a9e
Coefficient statistics:
  Matrix range     [8e-02, 2e+00]
  Objective range  [6e+02, 4e+07]
  Bounds range     [4e+00, 1e+02]
  RHS range        [1e+00, 1e+02]
Presolve removed 18488 rows and 26499 columns
Presolve time: 0.69s
Presolved: 30080 rows, 71341 columns, 249082 nonzeros
Ordering time: 0.89s

Barrier statistics:
 AA' NZ     : 2.961e+05
 Factor NZ  : 7.271e+06 (roughly 100 MBytes of memory)
 Factor Ops : 3.674e+09 (less than 1 second per iteration)
 Threads    : 1

                  Objective                Residual
Iter       Primal          Dual         Primal    Dual     Compl     Time
   0   1.61511875e+13 -9.04968643e+09  1.86e+04 2.46e+02  2.59e+09     2s
   1   6.68092989e+12 -3.65371813e+11  7.60e+03 6.32e+06  1.18e+09     3s
   2   3.13694738e+12 -8.15120167e+11  3.14e+03 3.08e+06  5.45e+08     3s
   3   6.68155375e+11 -9.07051508e+11  3.07e+02 3.97e+05  7.36e+07     4s
   4   2.32811000e+11 -3.59447469e+11  2.69e+01 1.22e+05  1.51e+07     4s
   5   8.32191057e+10 -8.26645382e+10  2.96e-01 1.64e+04  2.60e+06     5s
   6   1.81702822e+10 -9.75464213e+09  7.87e-03 1.68e+03  3.86e+05     5s
   7   3.66289949e+09 -3.09013772e+09  7.95e-04 4.58e+02  9.12e+04     6s
   8   1.26688207e+09 -9.72275184e+08  2.18e-04 2.98e-08  3.00e+04     6s
   9   6.09310515e+08 -3.00722550e+08  8.65e-05 2.98e-08  1.21e+04     7s
  10   2.51901563e+08 -6.01812086e+07  2.33e-05 2.98e-08  4.15e+03     7s
  11   1.93666871e+08  1.26539757e+07  1.46e-05 2.98e-08  2.40e+03     8s
  12   1.38647128e+08  4.71005989e+07  6.75e-06 2.98e-08  1.22e+03     8s
  13   1.12472080e+08  6.78227661e+07  3.14e-06 2.98e-08  5.93e+02     8s
  14   1.05255201e+08  7.93752307e+07  2.05e-06 2.98e-08  3.43e+02     9s
  15   1.02686278e+08  8.52079902e+07  1.72e-06 2.98e-08  2.32e+02     9s
  16   9.59270067e+07  8.78408316e+07  7.43e-07 2.98e-08  1.07e+02    10s
  17   9.23664436e+07  8.94796140e+07  2.57e-07 2.98e-08  3.82e+01    10s
  18   9.09643580e+07  8.98867725e+07  4.26e-06 2.98e-08  1.43e+01    11s
  19   9.04673920e+07  9.00460037e+07  4.95e-06 2.98e-08  5.58e+00    11s
  20   9.03072168e+07  9.00802609e+07  2.83e-05 2.98e-08  3.01e+00    12s
  21   9.01570308e+07  9.01203159e+07  3.24e-06 2.98e-08  4.86e-01    12s
  22   9.01370890e+07  9.01284373e+07  8.48e-06 2.98e-08  1.15e-01    13s
  23   9.01342993e+07  9.01299069e+07  4.91e-06 2.98e-08  5.82e-02    13s
  24   9.01319567e+07  9.01307625e+07  3.99e-06 2.98e-08  1.58e-02    13s
  25   9.01314254e+07  9.01310521e+07  2.20e-06 2.98e-08  4.94e-03    14s
  26   9.01312565e+07  9.01311473e+07  1.06e-06 6.10e-07  1.44e-03    14s
  27   9.01311808e+07  9.01311673e+07  1.52e-06 9.73e-07  1.78e-04    15s
  28   9.01311700e+07  9.01311682e+07  6.74e-06 8.39e-07  2.40e-05    15s
  29   9.01311688e+07  9.01311683e+07  9.41e-06 1.03e-06  6.43e-06    16s
  30   9.01311685e+07  9.01311684e+07  2.47e-06 8.77e-07  1.68e-06    16s
  31   9.01311684e+07  9.01311684e+07  8.28e-07 1.07e-06  6.28e-08    17s
  32   9.01311683e+07  9.01311684e+07  1.94e-05 9.73e-07  1.56e-08    17s
  33   9.01311684e+07  9.01311684e+07  5.34e-07 7.44e-07  2.31e-11    18s

Barrier solved model in 33 iterations and 17.72 seconds
Optimal objective 9.01311684e+07

Solver name: Gurobi
Solve time: 17.750646158
Termination status: OPTIMAL
Result count: 1
Primal status: FEASIBLE_POINT
Dual status: FEASIBLE_POINT
